p cnf 54 69                 
7 18 0
-1 -4 15 0
-15 18 0
8 19 0
-2 -5 16 0
-16 19 0
9 20 0
-3 -6 17 0
-17 20 0
-18 -19 -20 21 0
-21 -30 0
-8 -7 -10 0
10 -14 0
-7 11 0
-8 11 0
7 8 -11 0
-11 -9 -12 0
12 -14 0
9 11 -13 0
13 -14 0
14 -30 0
-7 1 -22 0
22 -25 0
-8 2 -23 0
23 -25 0
-9 3 -24 0
24 -25 0
25 -30 0
-7 4 -26 0
26 -29 0
-8 5 -27 0
27 -29 0
-9 6 -28 0
28 -29 0
29 -30 0
-1 2 -31 0
31 -41 0
-1 -2 32 0
1 2 32 0
-2 2 32 0
-4 5 -33 0
-32 33 -34 0
34 -41 0
-4 -5 35 0
4 5 35 0
-5 5 35 0
-32 -35 36 0
-7 8 -37 0
-36 37 -38 0
38 -41 0
41 -53 0
-2 3 -42 0
42 -52 0
-2 -3 43 0
2 3 43 0
-3 3 43 0
-5 6 -44 0
-43 44 -45 0
45 -52 0
-5 -6 46 0
5 6 46 0
-6 6 46 0
-43 -46 47 0
-8 9 -48 0
-47 48 -49 0
49 -52 0
52 -53 0
30 0
53 0
